16
13
5 10 3 7 11 14 13 8
3 4 0 13 1 8 10 12 5 2 15 6
14 2 9 6 8 7 1
14 4 8 6 0 2 5 9 3 13 1 10 7 11 12 15
1 2 9 10 8 7 5
11 0 6 7
7 11 0 2 6 14 12 15 5
9 12 13 1 3 7 6 0 11 14 2 4 10
7 2 6 8 0 9 5 14 3 10 11 1 13
14 8 11 15 12 2 5 3 0 10 6 4 7 9
1 5
13 15 9 0 7 10 8 4 14
7 1 9 4 6 13 5 8 15
